param n := 120;
param c := 1000;
param : V : p w :=
   0	  79	 366
   1	  79	 268
   2	  50	 366
   3	  78	 430
   4	  57	 263
   5	   1	 307
   6	   1	 414
   7	  38	 287
   8	  16	 299
   9	  95	 495
  10	  98	 251
  11	  94	 254
  12	  95	 474
  13	  13	 252
  14	  45	 274
  15	  50	 370
  16	  90	 269
  17	  15	 361
  18	  56	 473
  19	  21	 252
  20	  85	 275
  21	  83	 472
  22	  22	 259
  23	  25	 269
  24	  11	 444
  25	  50	 258
  26	  26	 298
  27	  46	 439
  28	  59	 273
  29	  92	 288
  30	  74	 445
  31	  95	 272
  32	  12	 283
  33	  13	 419
  34	  88	 261
  35	  33	 320
  36	  34	 363
  37	  22	 271
  38	  30	 366
  39	  19	 355
  40	  97	 273
  41	  41	 372
  42	  89	 466
  43	  72	 262
  44	  64	 272
  45	  43	 357
  46	  86	 292
  47	  34	 351
  48	  43	 395
  49	  75	 255
  50	  14	 350
  51	  97	 350
  52	  59	 303
  53	  46	 347
  54	  43	 450
  55	  15	 252
  56	  99	 298
  57	  74	 410
  58	  31	 275
  59	  30	 315
  60	  40	 407
  61	  56	 260
  62	  13	 333
  63	  40	 366
  64	  88	 271
  65	  89	 363
  66	  16	 350
  67	  32	 294
  68	  40	 356
  69	  86	 480
  70	  22	 253
  71	  86	 267
  72	  69	 446
  73	  53	 259
  74	  24	 295
  75	   9	 376
  76	  30	 267
  77	  84	 357
  78	  40	 366
  79	  40	 282
  80	  86	 352
  81	  63	 478
  82	  13	 256
  83	  88	 266
  84	  57	 420
  85	  72	 251
  86	  64	 329
  87	  35	 434
  88	  29	 252
  89	  56	 314
  90	  69	 470
  91	  37	 254
  92	   5	 276
  93	  12	 497
  94	  28	 250
  95	  89	 253
  96	   4	 497
  97	  28	 250
  98	   3	 253
  99	  91	 445
 100	  98	 254
 101	  64	 301
 102	  66	 412
 103	  27	 263
 104	   5	 325
 105	  32	 400
 106	  67	 298
 107	  17	 302
 108	   6	 362
 109	  35	 282
 110	  86	 356
 111	  42	 405
 112	  18	 259
 113	  92	 336
 114	  35	 397
 115	  57	 290
 116	  93	 313
 117	  68	 485
 118	  87	 253
 119	  22	 262
;

set E :=
   0	   2
   0	   3
   0	  11
   0	  14
   0	  15
   0	  17
   0	  20
   0	  21
   0	  22
   0	  28
   0	  29
   0	  33
   0	  35
   0	  38
   0	  41
   0	  45
   0	  48
   0	  49
   0	  51
   0	  52
   0	  53
   0	  55
   0	  56
   0	  57
   0	  60
   0	  61
   0	  62
   0	  65
   0	  68
   0	  70
   0	  72
   0	  74
   0	  75
   0	  76
   0	  77
   0	  80
   0	  81
   0	  84
   0	  85
   0	  88
   0	  92
   0	  93
   0	  96
   0	 101
   0	 102
   0	 105
   0	 106
   0	 108
   0	 109
   0	 112
   0	 116
   0	 118
   0	 119
   1	   7
   1	   8
   1	  11
   1	  12
   1	  14
   1	  16
   1	  22
   1	  23
   1	  25
   1	  28
   1	  32
   1	  33
   1	  34
   1	  36
   1	  38
   1	  40
   1	  44
   1	  45
   1	  46
   1	  47
   1	  48
   1	  50
   1	  53
   1	  54
   1	  56
   1	  57
   1	  58
   1	  61
   1	  65
   1	  70
   1	  71
   1	  73
   1	  74
   1	  75
   1	  76
   1	  78
   1	  79
   1	  81
   1	  84
   1	  85
   1	  86
   1	  91
   1	  93
   1	  95
   1	  97
   1	  98
   1	 100
   1	 104
   1	 105
   1	 108
   1	 110
   1	 115
   1	 116
   1	 118
   1	 119
   2	   4
   2	   5
   2	  10
   2	  15
   2	  17
   2	  21
   2	  23
   2	  24
   2	  28
   2	  29
   2	  31
   2	  32
   2	  33
   2	  34
   2	  35
   2	  36
   2	  42
   2	  43
   2	  44
   2	  47
   2	  48
   2	  49
   2	  50
   2	  52
   2	  54
   2	  57
   2	  58
   2	  61
   2	  62
   2	  63
   2	  66
   2	  70
   2	  71
   2	  73
   2	  80
   2	  83
   2	  86
   2	  89
   2	  92
   2	  93
   2	  94
   2	  96
   2	 104
   2	 105
   2	 106
   2	 114
   2	 117
   3	   4
   3	   5
   3	   6
   3	   7
   3	   8
   3	   9
   3	  10
   3	  12
   3	  13
   3	  14
   3	  15
   3	  17
   3	  19
   3	  20
   3	  23
   3	  26
   3	  28
   3	  31
   3	  32
   3	  33
   3	  34
   3	  37
   3	  39
   3	  41
   3	  48
   3	  49
   3	  50
   3	  54
   3	  55
   3	  56
   3	  64
   3	  65
   3	  69
   3	  72
   3	  76
   3	  77
   3	  78
   3	  79
   3	  90
   3	  91
   3	  94
   3	  97
   3	 100
   3	 101
   3	 105
   3	 108
   3	 109
   3	 113
   3	 116
   3	 117
   3	 118
   4	   7
   4	  11
   4	  12
   4	  15
   4	  18
   4	  23
   4	  24
   4	  35
   4	  38
   4	  41
   4	  42
   4	  47
   4	  48
   4	  51
   4	  52
   4	  53
   4	  54
   4	  57
   4	  61
   4	  63
   4	  64
   4	  65
   4	  66
   4	  72
   4	  75
   4	  80
   4	  83
   4	  84
   4	  87
   4	  90
   4	  91
   4	  93
   4	  94
   4	  95
   4	  98
   4	  99
   4	 103
   4	 105
   4	 110
   4	 115
   4	 117
   5	   6
   5	   9
   5	  11
   5	  12
   5	  13
   5	  17
   5	  19
   5	  21
   5	  23
   5	  24
   5	  25
   5	  27
   5	  28
   5	  30
   5	  32
   5	  34
   5	  36
   5	  38
   5	  40
   5	  43
   5	  46
   5	  49
   5	  51
   5	  52
   5	  53
   5	  61
   5	  66
   5	  67
   5	  70
   5	  72
   5	  75
   5	  76
   5	  77
   5	  79
   5	  80
   5	  84
   5	  86
   5	  89
   5	  90
   5	  92
   5	  94
   5	  95
   5	  98
   5	  99
   5	 100
   5	 103
   5	 104
   5	 107
   5	 109
   5	 110
   5	 111
   5	 115
   5	 116
   5	 119
   6	   8
   6	  13
   6	  18
   6	  23
   6	  26
   6	  29
   6	  30
   6	  34
   6	  35
   6	  36
   6	  38
   6	  45
   6	  47
   6	  48
   6	  52
   6	  55
   6	  58
   6	  59
   6	  72
   6	  75
   6	  78
   6	  79
   6	  80
   6	  85
   6	  86
   6	  87
   6	  91
   6	  92
   6	  93
   6	  96
   6	  99
   6	 100
   6	 104
   6	 105
   6	 108
   6	 112
   6	 113
   6	 117
   6	 119
   7	   8
   7	   9
   7	  10
   7	  17
   7	  20
   7	  21
   7	  26
   7	  28
   7	  29
   7	  32
   7	  38
   7	  41
   7	  48
   7	  49
   7	  50
   7	  53
   7	  57
   7	  58
   7	  62
   7	  65
   7	  68
   7	  70
   7	  71
   7	  78
   7	  80
   7	  83
   7	  89
   7	  91
   7	  92
   7	  93
   7	  95
   7	  96
   7	  98
   7	  99
   7	 100
   7	 101
   7	 102
   7	 110
   7	 111
   7	 112
   7	 113
   7	 114
   7	 118
   7	 119
   8	  12
   8	  13
   8	  17
   8	  18
   8	  19
   8	  20
   8	  24
   8	  25
   8	  26
   8	  28
   8	  36
   8	  38
   8	  40
   8	  44
   8	  48
   8	  50
   8	  54
   8	  60
   8	  64
   8	  66
   8	  69
   8	  71
   8	  72
   8	  76
   8	  79
   8	  82
   8	  83
   8	  85
   8	  90
   8	  94
   8	  95
   8	  99
   8	 100
   8	 106
   8	 114
   8	 116
   8	 118
   9	  12
   9	  13
   9	  23
   9	  26
   9	  29
   9	  32
   9	  36
   9	  37
   9	  42
   9	  43
   9	  44
   9	  49
   9	  51
   9	  52
   9	  53
   9	  55
   9	  56
   9	  57
   9	  58
   9	  62
   9	  63
   9	  66
   9	  68
   9	  69
   9	  70
   9	  71
   9	  74
   9	  75
   9	  77
   9	  78
   9	  79
   9	  81
   9	  83
   9	  84
   9	  85
   9	  87
   9	  89
   9	  90
   9	  93
   9	 103
   9	 104
   9	 105
   9	 110
   9	 111
   9	 112
   9	 115
   9	 116
   9	 117
  10	  12
  10	  14
  10	  15
  10	  17
  10	  22
  10	  23
  10	  25
  10	  27
  10	  28
  10	  29
  10	  31
  10	  32
  10	  33
  10	  41
  10	  47
  10	  49
  10	  52
  10	  54
  10	  55
  10	  57
  10	  59
  10	  61
  10	  62
  10	  66
  10	  68
  10	  69
  10	  71
  10	  74
  10	  76
  10	  78
  10	  80
  10	  81
  10	  82
  10	  84
  10	  86
  10	  87
  10	  88
  10	  96
  10	 103
  10	 104
  10	 105
  10	 107
  10	 109
  10	 110
  10	 114
  10	 116
  10	 119
  11	  13
  11	  18
  11	  24
  11	  27
  11	  29
  11	  35
  11	  37
  11	  39
  11	  42
  11	  44
  11	  45
  11	  47
  11	  48
  11	  50
  11	  54
  11	  56
  11	  63
  11	  65
  11	  69
  11	  70
  11	  74
  11	  77
  11	  78
  11	  79
  11	  80
  11	  82
  11	  83
  11	  85
  11	  89
  11	  91
  11	  94
  11	  96
  11	  97
  11	  98
  11	 101
  11	 104
  11	 109
  11	 110
  11	 111
  11	 112
  11	 113
  11	 116
  11	 118
  12	  13
  12	  14
  12	  15
  12	  16
  12	  18
  12	  19
  12	  20
  12	  23
  12	  32
  12	  34
  12	  36
  12	  39
  12	  42
  12	  43
  12	  45
  12	  49
  12	  50
  12	  53
  12	  55
  12	  56
  12	  61
  12	  65
  12	  67
  12	  71
  12	  72
  12	  73
  12	  77
  12	  81
  12	  84
  12	  89
  12	  91
  12	  92
  12	  95
  12	  96
  12	  99
  12	 100
  12	 102
  12	 104
  12	 106
  12	 110
  12	 111
  12	 114
  12	 117
  13	  19
  13	  20
  13	  23
  13	  25
  13	  26
  13	  32
  13	  33
  13	  35
  13	  36
  13	  39
  13	  42
  13	  43
  13	  47
  13	  48
  13	  50
  13	  52
  13	  60
  13	  62
  13	  67
  13	  68
  13	  71
  13	  72
  13	  76
  13	  77
  13	  84
  13	  86
  13	  87
  13	  88
  13	  90
  13	  91
  13	  98
  13	 101
  13	 102
  13	 103
  13	 105
  13	 108
  13	 112
  13	 116
  14	  17
  14	  18
  14	  23
  14	  25
  14	  26
  14	  27
  14	  29
  14	  36
  14	  40
  14	  44
  14	  45
  14	  46
  14	  47
  14	  48
  14	  54
  14	  56
  14	  66
  14	  67
  14	  71
  14	  72
  14	  73
  14	  75
  14	  77
  14	  78
  14	  79
  14	  81
  14	  84
  14	  85
  14	  86
  14	  91
  14	  93
  14	  95
  14	 105
  14	 108
  14	 109
  14	 112
  14	 116
  14	 117
  14	 119
  15	  16
  15	  20
  15	  21
  15	  22
  15	  25
  15	  26
  15	  27
  15	  28
  15	  29
  15	  31
  15	  33
  15	  36
  15	  39
  15	  40
  15	  44
  15	  47
  15	  48
  15	  53
  15	  55
  15	  56
  15	  58
  15	  59
  15	  61
  15	  62
  15	  63
  15	  65
  15	  69
  15	  71
  15	  72
  15	  77
  15	  81
  15	  86
  15	  87
  15	  88
  15	  90
  15	  91
  15	  95
  15	  96
  15	  97
  15	  99
  15	 101
  15	 102
  15	 105
  15	 109
  15	 110
  15	 114
  15	 115
  15	 116
  16	  20
  16	  23
  16	  24
  16	  25
  16	  26
  16	  27
  16	  32
  16	  35
  16	  36
  16	  39
  16	  43
  16	  44
  16	  45
  16	  46
  16	  47
  16	  48
  16	  57
  16	  58
  16	  61
  16	  62
  16	  63
  16	  67
  16	  70
  16	  79
  16	  81
  16	  90
  16	  91
  16	  92
  16	  95
  16	  96
  16	  97
  16	  98
  16	 100
  16	 102
  16	 103
  16	 105
  16	 106
  16	 108
  16	 109
  16	 114
  16	 116
  17	  23
  17	  25
  17	  26
  17	  29
  17	  39
  17	  43
  17	  44
  17	  46
  17	  48
  17	  49
  17	  54
  17	  56
  17	  57
  17	  63
  17	  66
  17	  69
  17	  72
  17	  73
  17	  76
  17	  83
  17	  86
  17	  89
  17	  95
  17	  99
  17	 101
  17	 106
  17	 108
  17	 109
  17	 110
  17	 111
  17	 115
  17	 118
  18	  21
  18	  23
  18	  24
  18	  28
  18	  29
  18	  30
  18	  33
  18	  36
  18	  40
  18	  42
  18	  44
  18	  45
  18	  46
  18	  50
  18	  54
  18	  55
  18	  56
  18	  59
  18	  60
  18	  61
  18	  64
  18	  65
  18	  69
  18	  72
  18	  73
  18	  74
  18	  75
  18	  79
  18	  81
  18	  84
  18	  88
  18	  92
  18	  93
  18	  94
  18	 104
  18	 105
  18	 109
  18	 110
  18	 111
  18	 112
  18	 113
  18	 116
  18	 117
  19	  20
  19	  24
  19	  25
  19	  32
  19	  34
  19	  35
  19	  36
  19	  37
  19	  38
  19	  44
  19	  45
  19	  48
  19	  57
  19	  60
  19	  62
  19	  64
  19	  65
  19	  70
  19	  76
  19	  77
  19	  79
  19	  82
  19	  83
  19	  92
  19	  96
  19	  97
  19	  99
  19	 106
  19	 108
  19	 112
  19	 113
  19	 115
  19	 116
  19	 119
  20	  22
  20	  23
  20	  26
  20	  30
  20	  31
  20	  35
  20	  40
  20	  42
  20	  46
  20	  48
  20	  58
  20	  61
  20	  62
  20	  63
  20	  69
  20	  70
  20	  71
  20	  73
  20	  77
  20	  78
  20	  81
  20	  82
  20	  88
  20	  92
  20	  93
  20	 103
  20	 104
  20	 106
  20	 107
  20	 108
  20	 109
  20	 110
  20	 112
  20	 117
  20	 119
  21	  23
  21	  26
  21	  27
  21	  28
  21	  29
  21	  32
  21	  34
  21	  39
  21	  41
  21	  43
  21	  45
  21	  46
  21	  50
  21	  51
  21	  56
  21	  60
  21	  62
  21	  63
  21	  68
  21	  70
  21	  72
  21	  73
  21	  75
  21	  82
  21	  83
  21	  85
  21	  88
  21	  90
  21	  93
  21	  94
  21	  96
  21	  97
  21	 103
  21	 104
  21	 109
  21	 111
  21	 112
  22	  28
  22	  34
  22	  35
  22	  36
  22	  40
  22	  41
  22	  42
  22	  45
  22	  47
  22	  52
  22	  53
  22	  54
  22	  56
  22	  57
  22	  58
  22	  59
  22	  60
  22	  61
  22	  65
  22	  67
  22	  69
  22	  70
  22	  71
  22	  73
  22	  76
  22	  78
  22	  79
  22	  81
  22	  85
  22	  86
  22	  88
  22	  95
  22	  99
  22	 102
  22	 105
  22	 107
  22	 110
  22	 112
  22	 115
  22	 117
  22	 118
  23	  29
  23	  31
  23	  32
  23	  35
  23	  36
  23	  37
  23	  41
  23	  48
  23	  49
  23	  54
  23	  57
  23	  58
  23	  61
  23	  64
  23	  66
  23	  67
  23	  68
  23	  69
  23	  70
  23	  73
  23	  74
  23	  75
  23	  78
  23	  82
  23	  83
  23	  84
  23	  85
  23	  87
  23	  88
  23	  89
  23	  91
  23	  92
  23	  93
  23	  95
  23	 102
  23	 107
  23	 108
  23	 109
  23	 110
  23	 112
  23	 114
  23	 117
  24	  26
  24	  27
  24	  28
  24	  31
  24	  35
  24	  40
  24	  42
  24	  43
  24	  44
  24	  45
  24	  48
  24	  49
  24	  51
  24	  52
  24	  53
  24	  62
  24	  64
  24	  65
  24	  66
  24	  67
  24	  68
  24	  69
  24	  70
  24	  73
  24	  74
  24	  76
  24	  78
  24	  82
  24	  83
  24	  84
  24	  85
  24	  86
  24	  87
  24	  90
  24	  91
  24	  94
  24	  96
  24	  97
  24	  98
  24	 101
  24	 102
  24	 103
  24	 108
  24	 113
  24	 114
  24	 115
  24	 116
  25	  31
  25	  32
  25	  34
  25	  35
  25	  36
  25	  38
  25	  40
  25	  43
  25	  44
  25	  50
  25	  52
  25	  56
  25	  59
  25	  65
  25	  66
  25	  69
  25	  71
  25	  73
  25	  76
  25	  83
  25	  84
  25	  86
  25	  88
  25	  91
  25	  92
  25	  98
  25	 103
  25	 105
  25	 110
  25	 111
  25	 113
  25	 119
  26	  32
  26	  33
  26	  39
  26	  40
  26	  46
  26	  48
  26	  49
  26	  54
  26	  55
  26	  63
  26	  65
  26	  67
  26	  68
  26	  69
  26	  70
  26	  73
  26	  78
  26	  80
  26	  82
  26	  85
  26	  86
  26	  95
  26	  98
  26	 101
  26	 102
  26	 103
  26	 104
  26	 105
  26	 108
  26	 114
  26	 119
  27	  29
  27	  30
  27	  34
  27	  41
  27	  47
  27	  49
  27	  52
  27	  57
  27	  58
  27	  63
  27	  68
  27	  72
  27	  73
  27	  76
  27	  77
  27	  79
  27	  82
  27	  84
  27	  87
  27	  96
  27	  98
  27	 100
  27	 105
  27	 108
  27	 111
  27	 113
  27	 116
  28	  29
  28	  34
  28	  35
  28	  37
  28	  39
  28	  43
  28	  50
  28	  51
  28	  52
  28	  53
  28	  54
  28	  55
  28	  56
  28	  58
  28	  59
  28	  62
  28	  63
  28	  64
  28	  67
  28	  70
  28	  71
  28	  72
  28	  73
  28	  75
  28	  78
  28	  80
  28	  84
  28	  86
  28	  89
  28	  91
  28	  93
  28	  98
  28	 100
  28	 102
  28	 103
  28	 106
  28	 107
  28	 109
  28	 110
  28	 115
  28	 116
  28	 118
  29	  33
  29	  34
  29	  36
  29	  38
  29	  44
  29	  45
  29	  50
  29	  51
  29	  53
  29	  55
  29	  57
  29	  59
  29	  64
  29	  65
  29	  67
  29	  70
  29	  71
  29	  75
  29	  76
  29	  86
  29	  87
  29	  90
  29	  93
  29	 102
  29	 103
  29	 104
  29	 111
  29	 112
  29	 113
  29	 114
  29	 115
  29	 116
  30	  38
  30	  40
  30	  43
  30	  47
  30	  50
  30	  52
  30	  56
  30	  58
  30	  61
  30	  62
  30	  63
  30	  64
  30	  70
  30	  74
  30	  76
  30	  78
  30	  79
  30	  81
  30	  83
  30	  84
  30	  90
  30	  91
  30	  92
  30	  93
  30	  96
  30	  98
  30	 102
  30	 103
  30	 104
  30	 106
  30	 107
  30	 110
  30	 111
  30	 115
  30	 117
  31	  33
  31	  35
  31	  36
  31	  41
  31	  42
  31	  43
  31	  44
  31	  48
  31	  49
  31	  51
  31	  52
  31	  53
  31	  56
  31	  57
  31	  59
  31	  60
  31	  61
  31	  62
  31	  67
  31	  71
  31	  72
  31	  76
  31	  82
  31	  84
  31	  85
  31	  87
  31	  90
  31	  92
  31	  93
  31	  94
  31	  95
  31	 101
  31	 102
  31	 104
  31	 109
  31	 113
  31	 116
  31	 117
  31	 119
  32	  33
  32	  34
  32	  36
  32	  41
  32	  43
  32	  44
  32	  45
  32	  52
  32	  53
  32	  59
  32	  60
  32	  61
  32	  62
  32	  64
  32	  66
  32	  70
  32	  73
  32	  74
  32	  77
  32	  80
  32	  84
  32	  88
  32	  89
  32	  92
  32	  93
  32	  94
  32	  95
  32	  96
  32	  98
  32	 103
  32	 104
  32	 105
  32	 107
  32	 108
  32	 114
  32	 115
  33	  36
  33	  40
  33	  42
  33	  43
  33	  44
  33	  46
  33	  48
  33	  49
  33	  51
  33	  52
  33	  53
  33	  54
  33	  55
  33	  57
  33	  59
  33	  63
  33	  64
  33	  65
  33	  70
  33	  75
  33	  82
  33	  83
  33	  84
  33	  85
  33	  88
  33	  93
  33	  94
  33	 107
  33	 113
  33	 115
  33	 116
  33	 118
  33	 119
  34	  36
  34	  37
  34	  39
  34	  40
  34	  44
  34	  47
  34	  50
  34	  51
  34	  54
  34	  59
  34	  66
  34	  67
  34	  70
  34	  73
  34	  74
  34	  75
  34	  76
  34	  78
  34	  80
  34	  81
  34	  83
  34	  91
  34	  95
  34	  98
  34	 100
  34	 102
  34	 104
  34	 106
  34	 107
  34	 109
  34	 118
  35	  38
  35	  42
  35	  50
  35	  53
  35	  57
  35	  59
  35	  62
  35	  65
  35	  66
  35	  67
  35	  68
  35	  70
  35	  72
  35	  74
  35	  78
  35	  79
  35	  80
  35	  83
  35	  84
  35	  86
  35	  88
  35	  89
  35	  91
  35	  94
  35	  95
  35	  96
  35	  97
  35	  99
  35	 101
  35	 102
  35	 105
  35	 108
  35	 110
  35	 114
  36	  37
  36	  39
  36	  40
  36	  44
  36	  50
  36	  51
  36	  55
  36	  58
  36	  61
  36	  63
  36	  64
  36	  67
  36	  68
  36	  70
  36	  74
  36	  77
  36	  78
  36	  79
  36	  80
  36	  81
  36	  87
  36	  88
  36	  89
  36	  92
  36	  93
  36	  94
  36	  95
  36	  98
  36	 100
  36	 104
  36	 108
  36	 110
  36	 111
  36	 113
  36	 118
  36	 119
  37	  40
  37	  41
  37	  43
  37	  46
  37	  49
  37	  50
  37	  51
  37	  53
  37	  54
  37	  55
  37	  57
  37	  60
  37	  62
  37	  64
  37	  67
  37	  70
  37	  74
  37	  75
  37	  78
  37	  80
  37	  82
  37	  85
  37	  86
  37	  88
  37	  89
  37	  93
  37	  98
  37	 101
  37	 103
  37	 105
  37	 106
  37	 108
  37	 117
  37	 118
  38	  39
  38	  40
  38	  41
  38	  43
  38	  45
  38	  46
  38	  47
  38	  54
  38	  58
  38	  62
  38	  64
  38	  69
  38	  72
  38	  73
  38	  74
  38	  75
  38	  82
  38	  83
  38	  85
  38	  86
  38	  87
  38	  88
  38	  89
  38	  90
  38	  91
  38	  92
  38	  93
  38	  94
  38	  95
  38	  96
  38	  97
  38	  99
  38	 104
  38	 105
  38	 106
  38	 109
  38	 110
  38	 111
  38	 115
  38	 116
  38	 119
  39	  40
  39	  41
  39	  46
  39	  47
  39	  48
  39	  49
  39	  51
  39	  54
  39	  60
  39	  62
  39	  63
  39	  64
  39	  66
  39	  68
  39	  69
  39	  71
  39	  72
  39	  76
  39	  77
  39	  88
  39	  89
  39	  93
  39	  95
  39	  97
  39	  98
  39	 101
  39	 104
  39	 105
  39	 106
  39	 108
  39	 111
  39	 115
  40	  44
  40	  45
  40	  46
  40	  47
  40	  48
  40	  49
  40	  52
  40	  53
  40	  57
  40	  60
  40	  65
  40	  66
  40	  67
  40	  68
  40	  70
  40	  72
  40	  75
  40	  79
  40	  80
  40	  82
  40	  83
  40	  90
  40	  94
  40	  98
  40	 100
  40	 105
  40	 106
  40	 110
  40	 114
  40	 118
  40	 119
  41	  43
  41	  47
  41	  50
  41	  51
  41	  53
  41	  54
  41	  55
  41	  56
  41	  58
  41	  61
  41	  62
  41	  73
  41	  77
  41	  81
  41	  83
  41	  85
  41	  86
  41	  88
  41	  90
  41	  93
  41	  94
  41	 100
  41	 108
  41	 109
  41	 112
  41	 117
  42	  48
  42	  49
  42	  50
  42	  53
  42	  54
  42	  55
  42	  58
  42	  59
  42	  61
  42	  64
  42	  66
  42	  68
  42	  69
  42	  71
  42	  73
  42	  77
  42	  79
  42	  81
  42	  82
  42	  84
  42	  85
  42	  86
  42	  87
  42	  88
  42	  89
  42	  90
  42	  92
  42	  93
  42	  97
  42	  99
  42	 100
  42	 104
  42	 107
  42	 117
  42	 118
  42	 119
  43	  45
  43	  48
  43	  49
  43	  51
  43	  54
  43	  56
  43	  57
  43	  61
  43	  67
  43	  68
  43	  69
  43	  72
  43	  73
  43	  81
  43	  82
  43	  85
  43	  93
  43	  94
  43	  96
  43	  98
  43	 101
  43	 103
  43	 106
  43	 108
  43	 109
  43	 110
  43	 112
  43	 115
  43	 116
  43	 119
  44	  46
  44	  54
  44	  56
  44	  58
  44	  59
  44	  60
  44	  62
  44	  64
  44	  66
  44	  69
  44	  71
  44	  72
  44	  77
  44	  78
  44	  86
  44	  88
  44	  89
  44	  91
  44	  96
  44	  97
  44	  98
  44	  99
  44	 100
  44	 101
  44	 102
  44	 104
  44	 106
  44	 119
  45	  46
  45	  47
  45	  50
  45	  52
  45	  53
  45	  55
  45	  56
  45	  58
  45	  60
  45	  61
  45	  62
  45	  65
  45	  71
  45	  72
  45	  73
  45	  74
  45	  75
  45	  78
  45	  88
  45	  89
  45	  91
  45	  94
  45	  96
  45	  98
  45	 104
  45	 106
  45	 107
  45	 108
  45	 111
  45	 114
  45	 115
  45	 118
  46	  48
  46	  49
  46	  50
  46	  53
  46	  54
  46	  62
  46	  65
  46	  67
  46	  69
  46	  70
  46	  72
  46	  75
  46	  83
  46	  84
  46	  86
  46	  87
  46	  88
  46	  91
  46	  95
  46	  96
  46	  97
  46	 102
  46	 104
  46	 105
  46	 108
  46	 109
  46	 110
  46	 111
  46	 114
  46	 115
  46	 118
  47	  49
  47	  52
  47	  55
  47	  59
  47	  61
  47	  64
  47	  65
  47	  67
  47	  69
  47	  71
  47	  72
  47	  73
  47	  74
  47	  75
  47	  77
  47	  80
  47	  82
  47	  83
  47	  85
  47	  86
  47	  87
  47	  88
  47	  89
  47	  90
  47	  91
  47	  94
  47	  96
  47	  97
  47	 100
  47	 101
  47	 102
  47	 105
  47	 107
  47	 111
  47	 112
  47	 114
  47	 115
  47	 117
  48	  50
  48	  54
  48	  55
  48	  58
  48	  63
  48	  66
  48	  67
  48	  69
  48	  70
  48	  71
  48	  74
  48	  75
  48	  88
  48	  89
  48	  90
  48	  91
  48	  92
  48	 100
  48	 105
  48	 106
  48	 107
  48	 108
  48	 111
  48	 114
  48	 115
  48	 118
  48	 119
  49	  51
  49	  56
  49	  60
  49	  63
  49	  64
  49	  65
  49	  66
  49	  75
  49	  76
  49	  77
  49	  80
  49	  84
  49	  88
  49	  94
  49	  98
  49	 100
  49	 104
  49	 105
  49	 109
  49	 113
  49	 115
  49	 117
  49	 118
  50	  51
  50	  52
  50	  53
  50	  54
  50	  58
  50	  59
  50	  60
  50	  61
  50	  62
  50	  69
  50	  72
  50	  75
  50	  76
  50	  80
  50	  82
  50	  83
  50	  84
  50	  87
  50	  88
  50	  90
  50	  92
  50	  93
  50	  94
  50	  95
  50	  96
  50	  98
  50	 101
  50	 103
  50	 104
  50	 106
  50	 110
  50	 111
  50	 112
  50	 113
  50	 117
  50	 118
  51	  54
  51	  56
  51	  61
  51	  62
  51	  67
  51	  69
  51	  73
  51	  74
  51	  77
  51	  78
  51	  81
  51	  82
  51	  86
  51	  88
  51	  90
  51	  92
  51	  93
  51	  94
  51	  96
  51	  97
  51	  99
  51	 100
  51	 101
  51	 103
  51	 107
  51	 108
  51	 109
  51	 116
  51	 119
  52	  54
  52	  56
  52	  60
  52	  61
  52	  64
  52	  65
  52	  67
  52	  69
  52	  70
  52	  72
  52	  73
  52	  76
  52	  81
  52	  84
  52	  86
  52	  90
  52	  96
  52	  97
  52	 102
  52	 103
  52	 106
  52	 109
  52	 112
  52	 114
  52	 115
  52	 116
  52	 117
  52	 118
  53	  57
  53	  61
  53	  66
  53	  67
  53	  69
  53	  73
  53	  79
  53	  82
  53	  88
  53	  89
  53	  90
  53	  91
  53	  95
  53	  96
  53	  97
  53	 101
  53	 104
  53	 106
  53	 108
  53	 113
  53	 114
  53	 115
  54	  58
  54	  61
  54	  62
  54	  63
  54	  67
  54	  68
  54	  70
  54	  71
  54	  72
  54	  76
  54	  79
  54	  84
  54	  86
  54	  89
  54	  91
  54	  94
  54	  97
  54	 101
  54	 102
  54	 104
  54	 105
  54	 108
  54	 112
  54	 114
  54	 115
  54	 116
  54	 117
  55	  57
  55	  58
  55	  59
  55	  61
  55	  62
  55	  64
  55	  66
  55	  67
  55	  71
  55	  74
  55	  77
  55	  80
  55	  82
  55	  83
  55	  89
  55	  90
  55	  91
  55	  92
  55	  93
  55	  94
  55	  96
  55	  98
  55	 102
  55	 103
  55	 104
  55	 106
  55	 111
  55	 115
  55	 116
  56	  57
  56	  58
  56	  60
  56	  62
  56	  64
  56	  67
  56	  70
  56	  72
  56	  79
  56	  82
  56	  83
  56	  86
  56	  88
  56	  89
  56	  91
  56	  97
  56	  99
  56	 100
  56	 103
  56	 105
  56	 107
  56	 108
  56	 112
  56	 113
  56	 115
  56	 118
  57	  58
  57	  59
  57	  63
  57	  64
  57	  65
  57	  66
  57	  72
  57	  73
  57	  74
  57	  77
  57	  78
  57	  81
  57	  85
  57	  89
  57	  90
  57	  91
  57	  92
  57	  94
  57	  96
  57	 102
  57	 103
  57	 110
  57	 111
  57	 113
  57	 116
  57	 119
  58	  59
  58	  60
  58	  61
  58	  62
  58	  63
  58	  65
  58	  68
  58	  69
  58	  72
  58	  74
  58	  75
  58	  76
  58	  79
  58	  80
  58	  83
  58	  84
  58	  85
  58	  86
  58	  93
  58	  97
  58	 100
  58	 102
  58	 104
  58	 106
  58	 107
  58	 113
  58	 114
  58	 116
  58	 117
  58	 119
  59	  61
  59	  63
  59	  66
  59	  68
  59	  71
  59	  74
  59	  75
  59	  76
  59	  81
  59	  82
  59	  84
  59	  85
  59	  88
  59	  89
  59	  91
  59	  94
  59	  95
  59	  96
  59	  97
  59	  99
  59	 104
  59	 105
  59	 108
  59	 112
  60	  63
  60	  64
  60	  65
  60	  67
  60	  71
  60	  72
  60	  73
  60	  76
  60	  86
  60	  87
  60	  92
  60	  95
  60	  97
  60	  98
  60	 103
  60	 109
  60	 110
  60	 112
  60	 115
  60	 116
  60	 119
  61	  63
  61	  66
  61	  68
  61	  74
  61	  75
  61	  77
  61	  81
  61	  85
  61	  86
  61	  87
  61	  89
  61	  93
  61	  95
  61	  96
  61	  97
  61	  99
  61	 101
  61	 106
  61	 108
  61	 110
  61	 116
  61	 117
  61	 119
  62	  65
  62	  66
  62	  69
  62	  70
  62	  71
  62	  74
  62	  78
  62	  81
  62	  85
  62	  87
  62	  89
  62	  90
  62	  92
  62	  93
  62	  96
  62	  97
  62	  99
  62	 102
  62	 105
  62	 106
  62	 107
  62	 114
  63	  64
  63	  66
  63	  67
  63	  68
  63	  69
  63	  76
  63	  80
  63	  82
  63	  83
  63	  85
  63	  86
  63	  88
  63	  90
  63	  94
  63	  98
  63	  99
  63	 100
  63	 103
  63	 104
  63	 105
  63	 106
  63	 107
  63	 109
  63	 111
  63	 114
  63	 118
  64	  69
  64	  70
  64	  72
  64	  73
  64	  74
  64	  75
  64	  79
  64	  80
  64	  82
  64	  86
  64	  88
  64	  90
  64	  91
  64	  92
  64	  96
  64	  97
  64	 106
  64	 107
  64	 109
  64	 112
  64	 114
  64	 115
  64	 116
  65	  66
  65	  67
  65	  68
  65	  71
  65	  73
  65	  75
  65	  77
  65	  81
  65	  82
  65	  87
  65	  88
  65	  91
  65	  94
  65	 101
  65	 106
  65	 107
  65	 108
  65	 116
  65	 117
  66	  70
  66	  71
  66	  73
  66	  74
  66	  77
  66	  78
  66	  82
  66	  84
  66	  87
  66	  88
  66	  90
  66	  94
  66	  95
  66	  97
  66	  98
  66	  99
  66	 100
  66	 101
  66	 102
  66	 104
  66	 105
  66	 107
  66	 108
  66	 113
  66	 116
  66	 117
  66	 118
  67	  71
  67	  72
  67	  73
  67	  75
  67	  76
  67	  78
  67	  81
  67	  83
  67	  85
  67	  86
  67	  88
  67	  90
  67	  95
  67	  96
  67	 102
  67	 103
  67	 104
  67	 106
  67	 109
  67	 110
  67	 111
  67	 113
  67	 116
  68	  69
  68	  70
  68	  73
  68	  74
  68	  78
  68	  81
  68	  83
  68	  84
  68	  85
  68	  87
  68	  88
  68	  93
  68	  95
  68	  97
  68	 101
  68	 103
  68	 107
  68	 108
  68	 109
  68	 111
  69	  70
  69	  72
  69	  73
  69	  79
  69	  80
  69	  81
  69	  82
  69	  83
  69	  87
  69	  88
  69	  89
  69	  90
  69	  92
  69	  95
  69	  97
  69	 101
  69	 105
  69	 106
  69	 110
  69	 114
  69	 115
  69	 118
  70	  74
  70	  77
  70	  81
  70	  89
  70	  91
  70	  99
  70	 100
  70	 101
  70	 102
  70	 103
  70	 105
  70	 112
  70	 114
  70	 115
  70	 117
  71	  72
  71	  73
  71	  75
  71	  77
  71	  79
  71	  85
  71	  87
  71	  91
  71	  96
  71	  99
  71	 100
  71	 103
  71	 104
  71	 105
  71	 111
  71	 113
  71	 114
  71	 116
  71	 117
  71	 119
  72	  73
  72	  75
  72	  78
  72	  86
  72	  90
  72	  91
  72	  95
  72	  97
  72	  98
  72	 102
  72	 104
  72	 106
  72	 107
  72	 111
  72	 118
  73	  76
  73	  77
  73	  79
  73	  80
  73	  81
  73	  83
  73	  84
  73	  86
  73	  87
  73	  89
  73	  90
  73	  91
  73	  92
  73	  94
  73	  95
  73	  96
  73	  98
  73	 103
  73	 104
  73	 107
  73	 109
  73	 114
  73	 116
  73	 117
  73	 118
  74	  75
  74	  81
  74	  86
  74	  87
  74	  88
  74	  92
  74	  93
  74	  97
  74	  99
  74	 100
  74	 103
  74	 105
  74	 108
  74	 111
  74	 116
  74	 117
  75	  76
  75	  77
  75	  80
  75	  81
  75	  82
  75	  87
  75	  88
  75	  89
  75	  94
  75	  95
  75	  96
  75	 108
  75	 109
  75	 111
  75	 112
  75	 113
  75	 117
  76	  80
  76	  81
  76	  82
  76	  85
  76	  87
  76	  89
  76	  94
  76	  96
  76	  99
  76	 100
  76	 102
  76	 103
  76	 105
  76	 108
  76	 110
  76	 115
  77	  78
  77	  80
  77	  84
  77	  86
  77	  87
  77	  88
  77	  89
  77	  90
  77	  91
  77	  95
  77	  96
  77	 100
  77	 105
  77	 106
  77	 107
  77	 110
  77	 111
  77	 116
  77	 117
  77	 118
  77	 119
  78	  79
  78	  80
  78	  82
  78	  84
  78	  87
  78	  88
  78	  94
  78	  96
  78	  99
  78	 100
  78	 101
  78	 103
  78	 104
  78	 105
  78	 107
  78	 108
  78	 109
  78	 111
  78	 115
  78	 118
  79	  81
  79	  83
  79	  84
  79	  90
  79	  94
  79	  98
  79	 108
  79	 111
  79	 113
  79	 114
  79	 115
  79	 116
  79	 117
  79	 118
  80	  81
  80	  83
  80	  85
  80	  86
  80	  90
  80	  91
  80	  94
  80	  95
  80	  96
  80	  97
  80	  98
  80	  99
  80	 101
  80	 105
  80	 106
  80	 107
  80	 109
  80	 110
  80	 114
  80	 116
  80	 119
  81	  83
  81	  88
  81	  89
  81	 101
  81	 103
  81	 107
  81	 109
  81	 111
  81	 112
  81	 113
  81	 114
  81	 115
  81	 116
  81	 118
  81	 119
  82	  86
  82	  91
  82	  94
  82	  96
  82	  98
  82	 100
  82	 107
  82	 110
  82	 116
  83	  84
  83	  87
  83	  88
  83	  93
  83	  96
  83	  99
  83	 100
  83	 102
  83	 106
  83	 108
  83	 109
  83	 110
  83	 112
  83	 113
  83	 118
  84	  89
  84	  91
  84	  93
  84	  96
  84	  97
  84	 100
  84	 103
  84	 107
  84	 109
  84	 112
  84	 113
  84	 115
  84	 118
  85	  86
  85	  92
  85	  93
  85	  97
  85	  98
  85	 102
  85	 104
  85	 107
  85	 108
  85	 109
  85	 111
  86	  87
  86	  88
  86	  90
  86	  91
  86	  95
  86	  96
  86	  99
  86	 102
  86	 105
  86	 108
  86	 110
  86	 112
  86	 115
  86	 119
  87	  89
  87	  90
  87	  92
  87	  93
  87	  94
  87	  96
  87	 102
  87	 103
  87	 107
  87	 108
  87	 109
  87	 110
  87	 114
  87	 117
  87	 118
  88	  92
  88	  93
  88	  96
  88	  98
  88	  99
  88	 100
  88	 102
  88	 105
  88	 106
  88	 109
  88	 111
  88	 114
  89	  90
  89	  91
  89	  92
  89	  93
  89	  94
  89	 105
  89	 113
  89	 114
  90	  96
  90	  97
  90	 101
  90	 105
  90	 106
  90	 109
  90	 115
  90	 117
  90	 119
  91	  93
  91	  94
  91	 100
  91	 109
  91	 111
  91	 112
  91	 116
  92	  93
  92	  94
  92	  95
  92	  99
  92	 103
  92	 109
  92	 113
  92	 115
  92	 116
  92	 118
  93	  99
  93	 100
  93	 103
  93	 110
  93	 111
  93	 112
  93	 113
  93	 118
  94	  97
  94	  98
  94	 101
  94	 103
  94	 106
  94	 108
  94	 110
  94	 116
  94	 117
  94	 119
  95	  98
  95	 101
  95	 103
  95	 109
  95	 114
  95	 115
  95	 117
  95	 118
  96	  98
  96	 100
  96	 101
  96	 107
  96	 109
  96	 112
  96	 113
  97	  98
  97	  99
  97	 102
  97	 104
  97	 110
  97	 111
  97	 112
  97	 113
  98	 101
  98	 104
  98	 106
  98	 109
  98	 110
  98	 111
  98	 113
  98	 114
  98	 116
  99	 100
  99	 101
  99	 102
  99	 105
  99	 107
  99	 109
  99	 114
  99	 115
  99	 118
  99	 119
 100	 104
 100	 110
 100	 111
 100	 115
 100	 118
 100	 119
 101	 104
 101	 109
 101	 110
 101	 111
 101	 117
 101	 118
 102	 105
 102	 107
 102	 108
 102	 110
 102	 111
 102	 112
 102	 113
 102	 115
 102	 119
 103	 104
 103	 106
 103	 107
 103	 108
 103	 110
 103	 111
 103	 112
 103	 114
 103	 116
 103	 118
 103	 119
 104	 107
 104	 109
 104	 110
 104	 112
 104	 113
 104	 115
 105	 107
 105	 108
 105	 112
 105	 113
 105	 116
 105	 118
 106	 108
 106	 112
 106	 115
 106	 117
 106	 119
 107	 108
 107	 109
 107	 112
 107	 115
 107	 118
 108	 109
 108	 114
 108	 116
 108	 118
 108	 119
 109	 110
 109	 112
 109	 113
 109	 117
 110	 113
 110	 115
 111	 114
 111	 115
 111	 116
 111	 118
 111	 119
 112	 113
 112	 118
 112	 119
 113	 114
 113	 117
 113	 119
 114	 115
 114	 116
 114	 117
 114	 118
 115	 117
 115	 118
 118	 119
;
